c colouring generated by benchmark framework
p edge 95 755
v 1 5
v 2 0
v 3 5
v 4 2
v 5 3
v 6 5
v 7 1
v 8 1
v 9 1
v 10 3
v 11 2
v 12 4
v 13 0
v 14 6
v 15 2
v 16 4
v 17 1
v 18 1
v 19 1
v 20 1
v 21 1
v 22 2
v 23 3
v 24 3
v 25 0
v 26 6
v 27 2
v 28 3
v 29 4
v 30 0
v 31 1
v 32 1
v 33 3
v 34 2
v 35 6
v 36 4
v 37 4
v 38 0
v 39 4
v 40 1
v 41 0
v 42 4
v 43 4
v 44 1
v 45 4
v 46 3
v 47 5
v 48 5
v 49 2
v 50 6
v 51 0
v 52 3
v 53 5
v 54 0
v 55 5
v 56 0
v 57 3
v 58 6
v 59 6
v 60 0
v 61 4
v 62 0
v 63 4
v 64 5
v 65 4
v 66 4
v 67 0
v 68 4
v 69 2
v 70 5
v 71 6
v 72 0
v 73 2
v 74 6
v 75 4
v 76 3
v 77 3
v 78 6
v 79 0
v 80 3
v 81 0
v 82 4
v 83 4
v 84 2
v 85 6
v 86 0
v 87 6
v 88 0
v 89 4
v 90 0
v 91 4
v 92 4
v 93 3
v 94 5
v 95 1
